; benchmark generated from python API
(set-info :status unknown)
(declare-fun y_1 () Int)
(declare-fun x_1 () Int)
(declare-fun r_2 () Int)
(declare-fun b_1 () Int)
(declare-fun y () Int)
(declare-fun x () Int)
(declare-fun r () Int)
(declare-fun i_2 () Int)
(declare-fun i () Int)
(declare-fun b () Int)
(declare-fun a_0 () Int)
(declare-fun a () Int)
(assert
 (let (($x912 (not (and (not (not (= b_1 0))) (not (= r_2 (* x_1 y_1)))))))
 (let (($x1032 (= y y_1)))
 (let (($x662 (= x x_1)))
 (let (($x161 (= r r_2)))
 (let (($x646 (= i i_2)))
 (let (($x222 (= b b_1)))
 (let (($x527 (= a a_0)))
 (let (($x1080 (=> (and (and (>= a 0) (>= b 0)) (= r (* a i))) (or (not (and $x527 $x222 $x646 $x161 $x662 $x1032)) $x912))))
 (not $x1080))))))))))
(check-sat)
